(set-info :source |printed by MathSAT|)
(declare-fun param_init_a2 () Int)
(declare-fun param_e4 () Bool)
(declare-fun call_Sofar.Sofar () Bool)
(declare-fun call_ticket3i.t () Int)
(declare-fun call_ticket3i.ite9 () Int)
(declare-fun call_ticket3i.g6 () Bool)
(declare-fun t () Int)
(declare-fun call_ticket3i.ite35 () Int)
(declare-fun call_ticket3i.ite20 () Int)
(declare-fun call_ticket3i.ite28 () Int)
(declare-fun erreur_ticket3i () Bool)
(declare-fun call_ticket3i.ite23 () Int)
(declare-fun call_ticket3i.ite4 () Int)
(declare-fun call_ticket3i.g8 () Bool)
(declare-fun call_ticket3i.g9 () Bool)
(declare-fun param_e5 () Bool)
(declare-fun call_ticket3i.ite14 () Int)
(declare-fun param_e3 () Bool)
(declare-fun call_ticket3i.a3 () Int)
(declare-fun param_e2 () Bool)
(declare-fun call_ticket3i.ite26 () Int)
(declare-fun call_ticket3i.ite27 () Int)
(declare-fun call_ticket3i.ite12 () Int)
(declare-fun param_init_t () Int)
(declare-fun param_e9 () Bool)
(declare-fun call_ticket3i.ite30 () Int)
(declare-fun call_ticket3i.flby2 () Int)
(declare-fun call_ticket3i.g4 () Bool)
(declare-fun param_init_a1 () Int)
(declare-fun call_ticket3i.a1 () Int)
(declare-fun call_ticket3i.g3 () Bool)
(declare-fun call_ticket3i.ite11 () Int)
(declare-fun call_ticket3i.p2 () Int)
(declare-fun call_ticket3i.flby8 () Int)
(declare-fun p3 () Int)
(declare-fun a2 () Int)
(declare-fun call_ticket3i.ite37 () Int)
(declare-fun call_ticket3i.ite22 () Int)
(declare-fun env () Bool)
(declare-fun call_ticket3i.ite5 () Int)
(declare-fun call_ticket3i.ite3 () Int)
(declare-fun s () Int)
(declare-fun call_ticket3i.ite16 () Int)
(declare-fun param_init_a3 () Int)
(declare-fun call_ticket3i.ite6 () Int)
(declare-fun p1 () Int)
(declare-fun call_ticket3i.flby7 () Int)
(declare-fun call_ticket3i.g2 () Bool)
(declare-fun call_ticket3i.g5 () Bool)
(declare-fun call_ticket3i.ite17 () Int)
(declare-fun call_ticket3i.flby5 () Int)
(declare-fun call_ticket3i.ite2 () Int)
(declare-fun call_ticket3i.ite10 () Int)
(declare-fun call_excludes9.excludes () Bool)
(declare-fun call_ticket3i.ite32 () Int)
(declare-fun param_e6 () Bool)
(declare-fun call_ticket3i.flby () Int)
(declare-fun call_ticket3i.ite25 () Int)
(declare-fun call_ticket3i.ite () Bool)
(declare-fun call_ticket3i.ite13 () Int)
(declare-fun call_ticket3i.g7 () Bool)
(declare-fun call_ticket3i.ite18 () Int)
(declare-fun call_ticket3i.ite36 () Int)
(declare-fun call_ticket3i.ite31 () Int)
(declare-fun param_e8 () Bool)
(declare-fun call_ticket3i.ite34 () Int)
(declare-fun call_ticket3i.p3 () Int)
(declare-fun call_ticket3i.flby4 () Int)
(declare-fun call_ticket3i.a2 () Int)
(declare-fun param_e1 () Bool)
(declare-fun call_ticket3i.ite33 () Int)
(declare-fun call_ticket3i.ite29 () Int)
(declare-fun call_ticket3i.flby3 () Int)
(declare-fun call_ticket3i.ite21 () Int)
(declare-fun a3 () Int)
(declare-fun call_ticket3i.ite8 () Int)
(declare-fun call_ticket3i.ite24 () Int)
(declare-fun param_e7 () Bool)
(declare-fun call_ticket3i.erreur_ticket3i () Bool)
(declare-fun _OK_ () Bool)
(declare-fun call_ticket3i.flby6 () Int)
(declare-fun call_ticket3i.s () Int)
(declare-fun call_ticket3i.ite15 () Int)
(declare-fun call_ticket3i.p1 () Int)
(declare-fun call_ticket3i.g1 () Bool)
(declare-fun a1 () Int)
(declare-fun p2 () Int)
(declare-fun call_Sofar.flby () Bool)
(declare-fun call_ticket3i.ite7 () Int)
(declare-fun call_ticket3i.ite19 () Int)
(define-fun .def_1273 () Bool (= call_Sofar.flby call_Sofar.Sofar))
(define-fun .def_1130 () Bool (not param_e2))
(define-fun .def_940 () Bool (not param_e3))
(define-fun .def_1254 () Bool (and .def_940 .def_1130))
(define-fun .def_947 () Bool (not param_e4))
(define-fun .def_1255 () Bool (and .def_947 .def_1254))
(define-fun .def_1162 () Bool (not param_e5))
(define-fun .def_1256 () Bool (and .def_1162 .def_1255))
(define-fun .def_954 () Bool (not param_e6))
(define-fun .def_1257 () Bool (and .def_954 .def_1256))
(define-fun .def_910 () Bool (not param_e7))
(define-fun .def_1258 () Bool (and .def_910 .def_1257))
(define-fun .def_1076 () Bool (not param_e8))
(define-fun .def_1259 () Bool (and .def_1076 .def_1258))
(define-fun .def_921 () Bool (not param_e9))
(define-fun .def_1260 () Bool (and .def_921 .def_1259))
(define-fun .def_933 () Bool (not param_e1))
(define-fun .def_1261 () Bool (or .def_933 .def_1260))
(define-fun .def_1246 () Bool (and param_e1 .def_1130))
(define-fun .def_1247 () Bool (and .def_940 .def_1246))
(define-fun .def_1248 () Bool (and .def_947 .def_1247))
(define-fun .def_1249 () Bool (and .def_1162 .def_1248))
(define-fun .def_1250 () Bool (and .def_954 .def_1249))
(define-fun .def_1251 () Bool (and .def_910 .def_1250))
(define-fun .def_1252 () Bool (and .def_1076 .def_1251))
(define-fun .def_1253 () Bool (and .def_921 .def_1252))
(define-fun .def_1262 () Bool (or .def_1253 .def_1261))
(define-fun .def_1238 () Bool (and .def_933 param_e2))
(define-fun .def_1239 () Bool (and .def_940 .def_1238))
(define-fun .def_1240 () Bool (and .def_947 .def_1239))
(define-fun .def_1241 () Bool (and .def_1162 .def_1240))
(define-fun .def_1242 () Bool (and .def_954 .def_1241))
(define-fun .def_1243 () Bool (and .def_910 .def_1242))
(define-fun .def_1244 () Bool (and .def_1076 .def_1243))
(define-fun .def_1245 () Bool (and .def_921 .def_1244))
(define-fun .def_1263 () Bool (or .def_1245 .def_1262))
(define-fun .def_1203 () Bool (and .def_933 .def_1130))
(define-fun .def_1231 () Bool (and param_e3 .def_1203))
(define-fun .def_1232 () Bool (and .def_947 .def_1231))
(define-fun .def_1233 () Bool (and .def_1162 .def_1232))
(define-fun .def_1234 () Bool (and .def_954 .def_1233))
(define-fun .def_1235 () Bool (and .def_910 .def_1234))
(define-fun .def_1236 () Bool (and .def_1076 .def_1235))
(define-fun .def_1237 () Bool (and .def_921 .def_1236))
(define-fun .def_1264 () Bool (or .def_1237 .def_1263))
(define-fun .def_1204 () Bool (and .def_940 .def_1203))
(define-fun .def_1225 () Bool (and param_e4 .def_1204))
(define-fun .def_1226 () Bool (and .def_1162 .def_1225))
(define-fun .def_1227 () Bool (and .def_954 .def_1226))
(define-fun .def_1228 () Bool (and .def_910 .def_1227))
(define-fun .def_1229 () Bool (and .def_1076 .def_1228))
(define-fun .def_1230 () Bool (and .def_921 .def_1229))
(define-fun .def_1265 () Bool (or .def_1230 .def_1264))
(define-fun .def_1205 () Bool (and .def_947 .def_1204))
(define-fun .def_1220 () Bool (and param_e5 .def_1205))
(define-fun .def_1221 () Bool (and .def_954 .def_1220))
(define-fun .def_1222 () Bool (and .def_910 .def_1221))
(define-fun .def_1223 () Bool (and .def_1076 .def_1222))
(define-fun .def_1224 () Bool (and .def_921 .def_1223))
(define-fun .def_1266 () Bool (or .def_1224 .def_1265))
(define-fun .def_1206 () Bool (and .def_1162 .def_1205))
(define-fun .def_1216 () Bool (and param_e6 .def_1206))
(define-fun .def_1217 () Bool (and .def_910 .def_1216))
(define-fun .def_1218 () Bool (and .def_1076 .def_1217))
(define-fun .def_1219 () Bool (and .def_921 .def_1218))
(define-fun .def_1267 () Bool (or .def_1219 .def_1266))
(define-fun .def_1207 () Bool (and .def_954 .def_1206))
(define-fun .def_1213 () Bool (and param_e7 .def_1207))
(define-fun .def_1214 () Bool (and .def_1076 .def_1213))
(define-fun .def_1215 () Bool (and .def_921 .def_1214))
(define-fun .def_1268 () Bool (or .def_1215 .def_1267))
(define-fun .def_1208 () Bool (and .def_910 .def_1207))
(define-fun .def_1211 () Bool (and param_e8 .def_1208))
(define-fun .def_1212 () Bool (and .def_921 .def_1211))
(define-fun .def_1269 () Bool (or .def_1212 .def_1268))
(define-fun .def_1209 () Bool (and .def_1076 .def_1208))
(define-fun .def_1210 () Bool (and param_e9 .def_1209))
(define-fun .def_1270 () Bool (or .def_1210 .def_1269))
(define-fun .def_1271 () Bool (= call_excludes9.excludes .def_1270))
(define-fun .def_1201 () Bool (= call_ticket3i.erreur_ticket3i call_ticket3i.ite))
(define-fun .def_1199 () Bool (= call_ticket3i.flby8 call_ticket3i.a3))
(define-fun .def_1197 () Bool (= call_ticket3i.flby7 call_ticket3i.a2))
(define-fun .def_1195 () Bool (= call_ticket3i.flby6 call_ticket3i.a1))
(define-fun .def_1193 () Bool (= call_ticket3i.flby5 call_ticket3i.s))
(define-fun .def_1191 () Bool (= call_ticket3i.flby4 call_ticket3i.t))
(define-fun .def_1189 () Bool (= call_ticket3i.flby3 call_ticket3i.p3))
(define-fun .def_1187 () Bool (= call_ticket3i.flby2 call_ticket3i.p2))
(define-fun .def_1184 () Bool (= call_ticket3i.flby call_ticket3i.p1))
(define-fun .def_1178 () Bool (<= 3 call_ticket3i.p3))
(define-fun .def_1176 () Bool (<= 3 call_ticket3i.p2))
(define-fun .def_1175 () Bool (<= 3 call_ticket3i.p1))
(define-fun .def_1177 () Bool (or .def_1175 .def_1176))
(define-fun .def_1179 () Bool (or .def_1177 .def_1178))
(define-fun .def_1181 () Bool (not .def_1179))
(define-fun .def_1182 () Bool (or call_ticket3i.ite .def_1181))
(define-fun .def_1174 () Bool (not call_ticket3i.ite))
(define-fun .def_1180 () Bool (or .def_1174 .def_1179))
(define-fun .def_1183 () Bool (and .def_1180 .def_1182))
(define-fun .def_1185 () Bool (and .def_1183 .def_1184))
(define-fun .def_1169 () Bool (= call_ticket3i.ite30 call_ticket3i.ite27))
(define-fun .def_1170 () Bool (or .def_954 .def_1169))
(define-fun .def_1166 () Bool (= call_ticket3i.ite29 call_ticket3i.ite30))
(define-fun .def_1167 () Bool (or param_e6 .def_1166))
(define-fun .def_1171 () Bool (and .def_1167 .def_1170))
(define-fun .def_1161 () Bool (= call_ticket3i.ite9 call_ticket3i.ite12))
(define-fun .def_1163 () Bool (or .def_1161 .def_1162))
(define-fun .def_1158 () Bool (= call_ticket3i.ite11 call_ticket3i.ite12))
(define-fun .def_1160 () Bool (or .def_1158 param_e5))
(define-fun .def_1164 () Bool (and .def_1160 .def_1163))
(define-fun .def_1154 () Bool (= call_ticket3i.ite23 call_ticket3i.ite24))
(define-fun .def_1155 () Bool (or param_e4 .def_1154))
(define-fun .def_1151 () Bool (= call_ticket3i.ite24 call_ticket3i.ite21))
(define-fun .def_1152 () Bool (or .def_947 .def_1151))
(define-fun .def_1147 () Bool (= call_ticket3i.ite8 call_ticket3i.ite13))
(define-fun .def_1148 () Bool (or .def_947 .def_1147))
(define-fun .def_1145 () Bool (= call_ticket3i.ite13 call_ticket3i.ite12))
(define-fun .def_1146 () Bool (or param_e4 .def_1145))
(define-fun .def_1149 () Bool (and .def_1146 .def_1148))
(define-fun .def_1153 () Bool (and .def_1149 .def_1152))
(define-fun .def_1156 () Bool (and .def_1153 .def_1155))
(define-fun .def_1139 () Bool (= call_ticket3i.ite31 call_ticket3i.ite26))
(define-fun .def_1140 () Bool (or .def_940 .def_1139))
(define-fun .def_1136 () Bool (= call_ticket3i.ite31 call_ticket3i.ite30))
(define-fun .def_1137 () Bool (or param_e3 .def_1136))
(define-fun .def_1141 () Bool (and .def_1137 .def_1140))
(define-fun .def_1129 () Bool (= call_ticket3i.ite3 call_ticket3i.ite6))
(define-fun .def_1131 () Bool (or .def_1129 .def_1130))
(define-fun .def_1126 () Bool (= call_ticket3i.ite5 call_ticket3i.ite6))
(define-fun .def_1128 () Bool (or .def_1126 param_e2))
(define-fun .def_1132 () Bool (and .def_1128 .def_1131))
(define-fun .def_1122 () Bool (= call_ticket3i.ite25 call_ticket3i.ite24))
(define-fun .def_1123 () Bool (or param_e1 .def_1122))
(define-fun .def_1118 () Bool (= call_ticket3i.ite20 call_ticket3i.ite25))
(define-fun .def_1119 () Bool (or .def_933 .def_1118))
(define-fun .def_1113 () Bool (= call_ticket3i.ite2 call_ticket3i.ite7))
(define-fun .def_1114 () Bool (or .def_933 .def_1113))
(define-fun .def_1111 () Bool (= call_ticket3i.ite7 call_ticket3i.ite6))
(define-fun .def_1112 () Bool (or param_e1 .def_1111))
(define-fun .def_1115 () Bool (and .def_1112 .def_1114))
(define-fun .def_1120 () Bool (and .def_1115 .def_1119))
(define-fun .def_1124 () Bool (and .def_1120 .def_1123))
(define-fun .def_1107 () Bool (= env call_Sofar.Sofar))
(define-fun .def_1104 () Bool (= erreur_ticket3i call_ticket3i.erreur_ticket3i))
(define-fun .def_1100 () Bool (= a3 call_ticket3i.a3))
(define-fun .def_1096 () Bool (= a2 call_ticket3i.a2))
(define-fun .def_1092 () Bool (= a1 call_ticket3i.a1))
(define-fun .def_1088 () Bool (= s call_ticket3i.s))
(define-fun .def_1084 () Bool (= call_ticket3i.t t))
(define-fun .def_1082 () Bool (= p3 call_ticket3i.p3))
(define-fun .def_1075 () Bool (= call_ticket3i.ite15 call_ticket3i.ite18))
(define-fun .def_1077 () Bool (or .def_1075 .def_1076))
(define-fun .def_1072 () Bool (= call_ticket3i.ite17 call_ticket3i.ite18))
(define-fun .def_1074 () Bool (or .def_1072 param_e8))
(define-fun .def_1078 () Bool (and .def_1074 .def_1077))
(define-fun .def_1070 () Bool (= p2 call_ticket3i.p2))
(define-fun .def_1066 () Bool (= p1 call_ticket3i.p1))
(define-fun .def_1060 () Bool (= call_ticket3i.ite14 call_ticket3i.ite19))
(define-fun .def_1061 () Bool (or .def_910 .def_1060))
(define-fun .def_1058 () Bool (= call_ticket3i.ite19 call_ticket3i.ite18))
(define-fun .def_1059 () Bool (or param_e7 .def_1058))
(define-fun .def_1062 () Bool (and .def_1059 .def_1061))
(define-fun .def_1053 () Bool (<= 0 t))
(define-fun .def_1051 () Bool (not env))
(define-fun .def_1054 () Bool (or .def_1051 .def_1053))
(define-fun .def_1055 () Bool (= _OK_ .def_1054))
(define-fun .def_1063 () Bool (and .def_1055 .def_1062))
(define-fun .def_1067 () Bool (and .def_1063 .def_1066))
(define-fun .def_1071 () Bool (and .def_1067 .def_1070))
(define-fun .def_1079 () Bool (and .def_1071 .def_1078))
(define-fun .def_1083 () Bool (and .def_1079 .def_1082))
(define-fun .def_1085 () Bool (and .def_1083 .def_1084))
(define-fun .def_1089 () Bool (and .def_1085 .def_1088))
(define-fun .def_1093 () Bool (and .def_1089 .def_1092))
(define-fun .def_1097 () Bool (and .def_1093 .def_1096))
(define-fun .def_1101 () Bool (and .def_1097 .def_1100))
(define-fun .def_1105 () Bool (and .def_1101 .def_1104))
(define-fun .def_1108 () Bool (and .def_1105 .def_1107))
(define-fun .def_1125 () Bool (and .def_1108 .def_1124))
(define-fun .def_1133 () Bool (and .def_1125 .def_1132))
(define-fun .def_1142 () Bool (and .def_1133 .def_1141))
(define-fun .def_1157 () Bool (and .def_1142 .def_1156))
(define-fun .def_1165 () Bool (and .def_1157 .def_1164))
(define-fun .def_1172 () Bool (and .def_1165 .def_1171))
(define-fun .def_1186 () Bool (and .def_1172 .def_1185))
(define-fun .def_1188 () Bool (and .def_1186 .def_1187))
(define-fun .def_1190 () Bool (and .def_1188 .def_1189))
(define-fun .def_1192 () Bool (and .def_1190 .def_1191))
(define-fun .def_1194 () Bool (and .def_1192 .def_1193))
(define-fun .def_1196 () Bool (and .def_1194 .def_1195))
(define-fun .def_1198 () Bool (and .def_1196 .def_1197))
(define-fun .def_1200 () Bool (and .def_1198 .def_1199))
(define-fun .def_1202 () Bool (and .def_1200 .def_1201))
(define-fun .def_1272 () Bool (and .def_1202 .def_1271))
(define-fun .def_1274 () Bool (and .def_1272 .def_1273))
(define-fun .def_1044 () Bool (<= 0 param_init_t))
(define-fun .def_1042 () Bool (<= 0 param_init_a3))
(define-fun .def_1040 () Bool (<= 0 param_init_a2))
(define-fun .def_1037 () Bool (<= 0 param_init_a1))
(define-fun .def_1039 () Bool (and .def_1037 call_excludes9.excludes))
(define-fun .def_1041 () Bool (and .def_1039 .def_1040))
(define-fun .def_1043 () Bool (and .def_1041 .def_1042))
(define-fun .def_1045 () Bool (and .def_1043 .def_1044))
(define-fun .def_1047 () Bool (= .def_1045 call_Sofar.flby))
(define-fun .def_1035 () Bool (= param_init_a3 call_ticket3i.flby8))
(define-fun .def_1031 () Bool (= param_init_a2 call_ticket3i.flby7))
(define-fun .def_1027 () Bool (= param_init_a1 call_ticket3i.flby6))
(define-fun .def_1023 () Bool (= call_ticket3i.t call_ticket3i.flby5))
(define-fun .def_1019 () Bool (= param_init_t call_ticket3i.flby4))
(define-fun .def_1015 () Bool (= call_ticket3i.flby3 0))
(define-fun .def_1012 () Bool (= call_ticket3i.flby2 0))
(define-fun .def_1009 () Bool (= call_ticket3i.flby 0))
(define-fun .def_1005 () Bool (= call_ticket3i.ite16 0))
(define-fun .def_1004 () Bool (not call_ticket3i.g9))
(define-fun .def_1006 () Bool (or .def_1004 .def_1005))
(define-fun .def_1000 () Bool (= call_ticket3i.ite15 2))
(define-fun .def_998 () Bool (not call_ticket3i.g8))
(define-fun .def_1001 () Bool (or .def_998 .def_1000))
(define-fun .def_994 () Bool (= call_ticket3i.ite14 1))
(define-fun .def_992 () Bool (not call_ticket3i.g7))
(define-fun .def_995 () Bool (or .def_992 .def_994))
(define-fun .def_988 () Bool (= call_ticket3i.ite10 0))
(define-fun .def_987 () Bool (not call_ticket3i.g6))
(define-fun .def_989 () Bool (or .def_987 .def_988))
(define-fun .def_983 () Bool (= call_ticket3i.ite9 2))
(define-fun .def_981 () Bool (not call_ticket3i.g5))
(define-fun .def_984 () Bool (or .def_981 .def_983))
(define-fun .def_977 () Bool (= call_ticket3i.ite8 1))
(define-fun .def_975 () Bool (not call_ticket3i.g4))
(define-fun .def_978 () Bool (or .def_975 .def_977))
(define-fun .def_971 () Bool (= call_ticket3i.ite4 0))
(define-fun .def_970 () Bool (not call_ticket3i.g3))
(define-fun .def_972 () Bool (or .def_970 .def_971))
(define-fun .def_966 () Bool (= call_ticket3i.ite3 2))
(define-fun .def_964 () Bool (not call_ticket3i.g2))
(define-fun .def_967 () Bool (or .def_964 .def_966))
(define-fun .def_960 () Bool (= call_ticket3i.ite2 1))
(define-fun .def_958 () Bool (not call_ticket3i.g1))
(define-fun .def_961 () Bool (or .def_958 .def_960))
(define-fun .def_952 () Bool (= call_ticket3i.ite10 call_ticket3i.ite11))
(define-fun .def_955 () Bool (or .def_952 .def_954))
(define-fun .def_945 () Bool (= call_ticket3i.ite35 call_ticket3i.ite34))
(define-fun .def_948 () Bool (or .def_945 .def_947))
(define-fun .def_938 () Bool (= call_ticket3i.ite4 call_ticket3i.ite5))
(define-fun .def_941 () Bool (or .def_938 .def_940))
(define-fun .def_931 () Bool (= call_ticket3i.ite33 call_ticket3i.ite32))
(define-fun .def_934 () Bool (or .def_931 .def_933))
(define-fun .def_925 () Bool (= call_ticket3i.ite16 call_ticket3i.ite17))
(define-fun .def_926 () Bool (or .def_921 .def_925))
(define-fun .def_919 () Bool (= call_ticket3i.ite28 call_ticket3i.ite29))
(define-fun .def_922 () Bool (or .def_919 .def_921))
(define-fun .def_927 () Bool (and .def_922 .def_926))
(define-fun .def_914 () Bool (= call_ticket3i.ite22 call_ticket3i.ite23))
(define-fun .def_915 () Bool (or .def_910 .def_914))
(define-fun .def_908 () Bool (= call_ticket3i.ite37 call_ticket3i.ite36))
(define-fun .def_911 () Bool (or .def_908 .def_910))
(define-fun .def_916 () Bool (and .def_911 .def_915))
(define-fun .def_928 () Bool (and .def_916 .def_927))
(define-fun .def_935 () Bool (and .def_928 .def_934))
(define-fun .def_942 () Bool (and .def_935 .def_941))
(define-fun .def_949 () Bool (and .def_942 .def_948))
(define-fun .def_956 () Bool (and .def_949 .def_955))
(define-fun .def_962 () Bool (and .def_956 .def_961))
(define-fun .def_968 () Bool (and .def_962 .def_967))
(define-fun .def_973 () Bool (and .def_968 .def_972))
(define-fun .def_979 () Bool (and .def_973 .def_978))
(define-fun .def_985 () Bool (and .def_979 .def_984))
(define-fun .def_990 () Bool (and .def_985 .def_989))
(define-fun .def_996 () Bool (and .def_990 .def_995))
(define-fun .def_1002 () Bool (and .def_996 .def_1001))
(define-fun .def_1007 () Bool (and .def_1002 .def_1006))
(define-fun .def_1010 () Bool (and .def_1007 .def_1009))
(define-fun .def_1013 () Bool (and .def_1010 .def_1012))
(define-fun .def_1016 () Bool (and .def_1013 .def_1015))
(define-fun .def_1020 () Bool (and .def_1016 .def_1019))
(define-fun .def_1024 () Bool (and .def_1020 .def_1023))
(define-fun .def_1028 () Bool (and .def_1024 .def_1027))
(define-fun .def_1032 () Bool (and .def_1028 .def_1031))
(define-fun .def_1036 () Bool (and .def_1032 .def_1035))
(define-fun .def_1048 () Bool (and .def_1036 .def_1047))
(define-fun .def_1275 () Bool (and .def_1048 .def_1274))
(assert .def_1275)
